119 48 011 1
1
535 113 1
437 114 1
397 115 1
418 116 1
408 117 1
453 118 1
379 119 1
486 108 1
429 109 1
422 110 1
512 111 1
513 112 1
392 113 1
483 114 1
451 115 1
404 116 1
543 117 1
365 118 1
355 119 1
370 108 1
461 109 1
504 110 1
367 111 1
418 112 1
490 113 1
353 114 1
385 115 1
402 116 1
553 117 1
554 118 1
485 119 1
531 108 1
462 109 1
464 110 1
380 111 1
424 112 1
374 113 1
414 114 1
415 115 1
388 116 1
395 117 1
420 118 1
453 119 1
437 108 1
673 109 1
469 110 1
507 111 1
401 112 1
1
1
1
1
1
1
1
1
1
1
1
1
1
1
1
1
1
1
1
1
1
1
1
1
1
1
1
1
1
1
1
1
1
1
1
1
1
1
1
1
1
1
1
1
1
1
1
1
1
1
1
1
1
1
1
1
1
1
1 9 485 21 369 33 530 45 436
1 10 428 22 460 34 461 46 672
1 11 421 23 503 35 463 47 468
1 12 511 24 366 36 379 48 506
1 13 512 25 417 37 423 49 400
1 2 534 14 391 26 489 38 373
1 3 436 15 482 27 352 39 413
1 4 396 16 450 28 384 40 414
1 5 417 17 403 29 401 41 387
1 6 407 18 542 30 552 42 394
1 7 452 19 364 31 553 43 419
1 8 378 20 354 32 484 44 452
